#######################



#######################
Set parameter TimeLimit to value 500
Set parameter SoftMemLimit to value 125
Set parameter LogFile to value 1202-MIPFocus0-Presolve1-TimeLimit500-k16x240-4.log
Set parameter Presolve to value 1
Set parameter Seed to value 14
Using license file /opt/gurobi/gurobi.lic

Gurobi Optimizer version 12.0.2 build v12.0.2rc0 (linux64 - "Ubuntu 22.04.4 LTS")
Copyright (c) 2025, Gurobi Optimization, LLC

Read MPS format model from file /miplib2010/k16x240.mps.bz2
Reading time = 0.00 seconds
k16x240: 256 rows, 480 columns, 960 nonzeros

Using Gurobi shared library /nfs/shared/static-builds/gurobi1202

CPU model: Intel(R) Xeon(R) E-2388G CPU @ 3.20GHz, instruction set [SSE2|AVX|AVX2|AVX512]
Thread count: 8 physical cores, 16 logical processors, using up to 16 threads

Non-default parameters:
TimeLimit  500
SoftMemLimit  125
Presolve  1
Seed  14

Optimize a model with 256 rows, 480 columns and 960 nonzeros
Model fingerprint: 0x4e80885f
Variable types: 240 continuous, 240 integer (240 binary)
Coefficient statistics:
  Matrix range     [1e+00, 1e+03]
  Objective range  [1e+00, 1e+03]
  Bounds range     [1e+00, 1e+03]
  RHS range        [4e+00, 4e+02]
Found heuristic solution: objective 19431.000000
Presolve time: 0.00s
Presolved: 256 rows, 480 columns, 960 nonzeros
Variable types: 240 continuous, 240 integer (240 binary)

Root relaxation: objective 2.769838e+03, 51 iterations, 0.00 seconds (0.00 work units)

    Nodes    |    Current Node    |     Objective Bounds      |     Work
 Expl Unexpl |  Obj  Depth IntInf | Incumbent    BestBd   Gap | It/Node Time

     0     0 2769.83800    0   14 19431.0000 2769.83800  85.7%     -    0s
H    0     0                    11359.000000 2769.83800  75.6%     -    0s
H    0     0                    11342.000000 2769.83800  75.6%     -    0s
H    0     0                    11195.000000 2769.83800  75.3%     -    0s
H    0     0                    11088.000000 2769.83800  75.0%     -    0s
H    0     0                    11074.000000 2769.83800  75.0%     -    0s
     0     0 8084.69631    0   26 11074.0000 8084.69631  27.0%     -    0s
H    0     0                    10916.000000 8126.71248  25.6%     -    0s
     0     0 8528.16906    0   24 10916.0000 8528.16906  21.9%     -    0s
H    0     0                    10806.000000 8539.49533  21.0%     -    0s
     0     0 8539.49533    0   34 10806.0000 8539.49533  21.0%     -    0s
     0     0 8548.03675    0   29 10806.0000 8548.03675  20.9%     -    0s
     0     0 8739.20556    0   38 10806.0000 8739.20556  19.1%     -    0s
H    0     0                    10739.000000 8745.55182  18.6%     -    0s
H    0     0                    10717.000000 8745.55182  18.4%     -    0s
     0     0 8805.66840    0   29 10717.0000 8805.66840  17.8%     -    0s
     0     0 8815.00598    0   31 10717.0000 8815.00598  17.7%     -    0s
     0     0 8817.96662    0   29 10717.0000 8817.96662  17.7%     -    0s
     0     0 9023.36847    0   46 10717.0000 9023.36847  15.8%     -    0s
     0     0 9041.48459    0   41 10717.0000 9041.48459  15.6%     -    0s
     0     0 9045.76261    0   43 10717.0000 9045.76261  15.6%     -    0s
     0     0 9060.17491    0   29 10717.0000 9060.17491  15.5%     -    0s
     0     0 9073.25392    0   32 10717.0000 9073.25392  15.3%     -    0s
     0     0 9077.48119    0   33 10717.0000 9077.48119  15.3%     -    0s
     0     0 9093.41516    0   31 10717.0000 9093.41516  15.1%     -    0s
     0     0 9095.08621    0   31 10717.0000 9095.08621  15.1%     -    0s
     0     2 9097.80946    0   31 10717.0000 9097.80946  15.1%     -    0s
H  147   161                    10711.000000 9217.62609  13.9%  28.0    0s
H  148   161                    10674.000000 9217.62609  13.6%  27.9    0s
 36071 12275 10452.8133   30   12 10674.0000 10062.2916  5.73%  27.2    5s
 72173 15989 10506.9300   31   19 10674.0000 10237.3166  4.09%  28.1   10s
 117335 10062     cutoff   36      10674.0000 10428.7085  2.30%  27.7   15s

Cutting planes:
  Gomory: 2
  Lift-and-project: 13
  Cover: 72
  Implied bound: 30
  Dual implied bound: 24
  MIR: 191
  Flow cover: 263
  Flow path: 47
  Inf proof: 3
  Zero half: 5
  Network: 55
  Relax-and-lift: 4

Explored 136423 nodes (3585649 simplex iterations) in 16.79 seconds (23.26 work units)
Thread count was 16 (of 16 available processors)

Solution count 10: 10674 10711 10717 ... 11342

Optimal solution found (tolerance 1.00e-04)
Best objective 1.067400000000e+04, best bound 1.067400000000e+04, gap 0.0000%
